DATASET = "thpack3";
INSTANCE = "009";

WIDTH = 233;
HEIGHT = 220;
LENGTH = 587;

NO_OF_SHAPES = 8;
size = [|
  90,70,63 |
  84,78,28 |
  94,85,39 |
  80,76,54 |
  69,50,45 |
  70,57,37 |
  94,61,54 |
  92,44,29 |
|];

verticality = [|
  1,1,1 |
  0,0,1 |
  0,0,1 |
  1,1,1 |
  1,1,1 |
  1,1,1 |
  1,1,1 |
  0,1,1 |
|];

box_count = [
  6,
  17,
  19,
  16,
  16,
  17,
  18,
  24,
];
